branch-and-cut/resultados/I080/i080-004.sol
1866
12
15 34
3 59
2 15
74 4
6 34
77 59
4 5
34 8
74 60
1 74
8 60
77 60
