branch-and-cut/resultados/I080/i080-004.log

Gurobi 10.0.3 (linux64) logging started Fri Dec 15 17:32:45 2023

Set parameter LogFile to value "resultados/I080/i080-004.log"
Set parameter Cutoff to value 2925
Gurobi Optimizer version 10.0.3 build v10.0.3rc0 (linux64)

CPU model: Intel(R) Core(TM) i7-8650U CPU @ 1.90GHz, instruction set [SSE2|AVX|AVX2]
Thread count: 4 physical cores, 8 logical processors, using up to 8 threads

Optimize a model with 6 rows, 120 columns and 18 nonzeros
Model fingerprint: 0x542080d1
Variable types: 0 continuous, 120 integer (120 binary)
Coefficient statistics:
  Matrix range     [1e+00, 1e+00]
  Objective range  [9e+01, 3e+02]
  Bounds range     [1e+00, 1e+00]
  RHS range        [1e+00, 1e+00]
Presolve removed 2 rows and 1 columns
Presolve time: 0.00s
Presolved: 4 rows, 119 columns, 14 nonzeros
Variable types: 0 continuous, 119 integer (119 binary)

Root relaxation: objective 1.079000e+03, 4 iterations, 0.00 seconds (0.00 work units)

    Nodes    |    Current Node    |     Objective Bounds      |     Work
 Expl Unexpl |  Obj  Depth IntInf | Incumbent    BestBd   Gap | It/Node Time

     0     0 1079.00000    0    -          - 1079.00000      -     -    0s
     0     0 1291.00000    0    -          - 1291.00000      -     -    0s
     0     0 1461.00000    0    -          - 1461.00000      -     -    0s
     0     0 1481.00000    0    4          - 1481.00000      -     -    0s
     0     0 1572.00000    0    -          - 1572.00000      -     -    0s
     0     0 1579.00000    0    4          - 1579.00000      -     -    0s
     0     0 1621.50000    0    5          - 1621.50000      -     -    0s
     0     0 1645.66667    0   18          - 1645.66667      -     -    0s
     0     0 1673.00000    0   16          - 1673.00000      -     -    0s
     0     0 1678.00000    0   18          - 1678.00000      -     -    0s
     0     2 1680.66667    0   21          - 1680.66667      -     -    0s
*  991   306              12    1961.0000000 1831.29412  6.61%   8.7    1s
* 1196   192               9    1866.0000000 1856.93750  0.49%   9.4    2s

Cutting planes:
  User: 130
  MIR: 4
  Lazy constraints: 296

Explored 1234 nodes (11784 simplex iterations) in 2.68 seconds (0.19 work units)
Thread count was 8 (of 8 available processors)

Solution count 2: 1866 1961 

Optimal solution found (tolerance 1.00e-04)
Best objective 1.866000000000e+03, best bound 1.866000000000e+03, gap 0.0000%

User-callback calls 2837, time in user-callback 2.40 sec
